0 26 26
1 27 28
2 24 29
3 21 28
4 22 26
5 18 25
6 22 22
7 23 23
8 17 22
9 18 21
10 15 21
11 17 21
12 16 18
13 13 15
14 16 17
15 13 15
16 15 16
17 13 14
18 9 13
19 13 16
20 13 14
21 12 12
22 13 13
23 8 10
24 9 9
25 8 9
26 11 11
27 11 11
28 7 9
29 7 8
30 8 8
31 8 8
32 6 10
33 6 6
34 5 5
35 3 5
36 4 4
37 1 2
38 4 4
39 5 5
40 3 5
41 3 3
42 1 2
43 2 2
44 1 1
45 1 1

